NAME : optical-integer.pruned_global_16.-16882801.tour
COMMENT : Length = -16882801
TYPE : TOUR
DIMENSION : 174
TOUR_SECTION
157
156
158
155
154
153
151
152
150
149
148
144
145
146
147
142
143
141
140
98
139
128
116
112
108
105
104
109
107
95
93
91
89
87
85
83
81
79
77
75
73
71
69
67
65
63
61
59
57
55
56
58
60
62
64
66
68
70
72
74
76
78
80
82
84
86
54
53
52
50
47
45
43
41
39
2
1
3
4
5
37
35
33
31
29
27
25
23
21
19
17
15
13
11
9
7
6
8
10
12
14
16
18
20
22
24
26
28
30
32
34
36
38
40
42
44
46
49
51
88
90
92
94
96
111
113
114
118
120
117
102
115
110
106
100
131
169
135
127
173
165
99
129
101
126
125
124
123
122
167
136
161
174
159
48
121
103
97
119
164
163
162
160
166
137
132
133
134
130
138
170
171
172
168
-1
EOF
